10 10 4

0 179 214 57 456 101 252 212 499 176 
356 0 488 288 220 105 282 458 176 166 
57 309 0 173 96 204 110 135 371 231 
412 315 401 0 221 200 114 436 362 165 
187 74 371 69 0 136 114 63 306 169 
51 471 51 168 234 0 66 291 281 220 
351 122 90 289 484 111 0 189 412 469 
461 347 330 332 484 110 202 0 259 197 
473 272 453 142 274 423 350 148 0 364 
367 389 144 86 446 216 334 234 407 0 

79.5 0 4
79.5 1 6
79.5 2 6
79.5 3 6
79.5 4 3
79.5 5 4
79.5 6 2
79.5 7 3
79.5 8 2
79.5 9 2

